\ Model _copy
\ LP format - for model browsing. Use MPS format to capture full model detail.
Minimize
 
Subject To
 gas_shed_rt(ng110,s2,t21): gshed(ng110,s2,t21) <= 0
 gas_balance(ng110,s2,t21): gshed(ng110,s2,t21)
   - qout_sr_rt(('ng109',_'ng110'),s2,t21)
   - qin_sr_rt(('ng110',_'ng111'),s2,t21) = 667.2
Bounds
 gshed(ng110,s2,t21) free
End
